50 11085

438
395
144
471
277
111
71
8
329
366
295
394
134
437
97
195
277
119
120
262
346
233
288
393
278
459
343
260
1
406
377
356
383
223
235
133
158
132
469
377
444
452
81
96
488
454
294
471
123
164
